
--- Job ChatPT_GAMS_code_v7_full_changes.gms Start 11/19/25 15:46:25 39.1.1 dbf03b78 WEX-WEI x86 64bit/MS Windows
--- Applying:
    C:\GAMS\39\gmsprmNT.txt
--- GAMS Parameters defined
    Input "C:\Users\Nicolas\OneDrive\Documents\NTNU Fall 2025\Semesteroppgave\Prosjektoppgave_dekarbonisering_i_Mo_industripark\ChatPT_GAMS_code_v7_full_changes.gms"
    PageSize 0
    ScrDir "C:\Users\Nicolas\OneDrive\Documents\NTNU Fall 2025\Semesteroppgave\Prosjektoppgave_dekarbonisering_i_Mo_industripark\225a\"
    SysDir C:\GAMS\39\
    LogOption 3
    ErrMsg 1
    ErrorLog 99
    IDE 1
    LstTitleLeftAligned 1
Licensee: Small MUD - 5 User License                     S240604|0002AP-GEN
          Norwegian University of Science and Technology             DC7530
          C:\Users\Nicolas\OneDrive\Documents\GAMS\gamslice.txt
          License Admin: Ruud Egging, ruud.egging@ntnu.no                  
Processor information: 1 socket(s), 4 core(s), and 8 thread(s) available
GAMS 39.1.1   Copyright (C) 1987-2022 GAMS Development. All rights reserved
--- Starting compilation
--- ChatPT_GAMS_code_v7_full_changes.gms(732) 3 Mb
--- Starting execution: elapsed 0:00:00.016
--- ChatPT_GAMS_code_v7_full_changes.gms(648) 4 Mb
--- Generating LP model FeMn_SiMn_Opt
--- ChatPT_GAMS_code_v7_full_changes.gms(653) 5 Mb
---   2,689 rows  3,031 columns  9,659 non-zeroes
--- Range statistics (absolute non-zero finite values)
--- RHS       [min, max] : [ 4.600E+02, 3.000E+05] - Zero values observed as well
--- Bound     [min, max] : [        NA,        NA] - Zero values observed as well
--- Matrix    [min, max] : [ 1.000E-02, 3.330E+04]
--- Executing CPLEX (Solvelink=2): elapsed 0:00:00.032

IBM ILOG CPLEX   39.1.1 dbf03b78 May 18, 2022          WEI x86 64bit/MS Window

--- GAMS/Cplex licensed for continuous and discrete problems.
--- GMO setup time: 0.00s
--- Space for names approximately 0.16 Mb
--- Use option 'names no' to turn use of names off
--- GMO memory 1.16 Mb (peak 1.18 Mb)
--- Dictionary memory 0.00 Mb
--- Cplex 22.1.0.0 link memory 0.09 Mb (peak 0.40 Mb)
--- Starting Cplex

Version identifier: 22.1.0.0 | 2022-03-09 | 1a383f8ce
CPXPARAM_Advance                                 0
CPXPARAM_Threads                                 1
CPXPARAM_MIP_Display                             4
CPXPARAM_MIP_Pool_Capacity                       0
CPXPARAM_MIP_Tolerances_AbsMIPGap                0
Tried aggregator 1 time.
LP Presolve eliminated 1451 rows and 857 columns.
Aggregator did 748 substitutions.
Reduced LP has 489 rows, 1426 columns, and 4688 nonzeros.
Presolve time = 0.00 sec. (3.69 ticks)
Symmetry aggregator did 740 additional substitutions.
Initializing dual steep norms . . .

Iteration log . . .
Iteration:     1   Dual objective     =      12659997.000000
Iteration:    93   Dual objective     =     653339675.074581
Iteration:   177   Dual objective     =    1432821837.737743

Dual crossover.
  Dual:  Fixing 27 variables.
       26 DMoves:  Infeasibility  1.03028697e-12  Objective  1.45939222e+09
        0 DMoves:  Infeasibility  1.03028697e-12  Objective  1.45939222e+09
  Dual:  Pushed 0, exchanged 27.
  Primal:  Fixing 57 variables.
       56 PMoves:  Infeasibility  0.00000000e+00  Objective  1.45939222e+09
        0 PMoves:  Infeasibility  0.00000000e+00  Objective  1.45939222e+09
  Primal:  Pushed 34, exchanged 23.

--- LP status (1): optimal.
--- Cplex Time: 0.00sec (det. 7.09 ticks)


Optimal solution found
Objective:   1459392219.502036

--- Reading solution for model FeMn_SiMn_Opt
--- Executing after solve: elapsed 0:00:00.082
--- ChatPT_GAMS_code_v7_full_changes.gms(722) 5 Mb
--- GDX File (execute_unload) C:\Users\Nicolas\OneDrive\Documents\NTNU Fall 2025\Semesteroppgave\Prosjektoppgave_dekarbonisering_i_Mo_industripark\output_test_2.gdx
--- ChatPT_GAMS_code_v7_full_changes.gms(732) 5 Mb
*** Status: Normal completion
--- Job ChatPT_GAMS_code_v7_full_changes.gms Stop 11/19/25 15:46:25 elapsed 0:00:00.082
